(set-logic QF_SLIA)
(declare-fun var0 () String)
(assert (str.in_re var0 (re.++ ((_ re.loop 8 598) (re.++ (re.union (str.to_re "M") (re.union (str.to_re "fS|") (re.union (str.to_re "/z") (str.to_re "J")))) (re.++ (re.union (str.to_re "PZ7") (re.union (str.to_re "f") (re.union (str.to_re "sE!") (str.to_re "~")))) (re.++ (re.union (str.to_re "|FK") (re.union (str.to_re "b1") (re.union (str.to_re "xP") (str.to_re "\\@Y")))) (re.union (str.to_re "1eP") (re.union (str.to_re "#ui") (re.union (str.to_re "a") (str.to_re "y")))))))) (re.++ ((_ re.loop 14 989) (re.++ (re.union (str.to_re "A") (re.union (str.to_re "*x0") (re.union (str.to_re "vc") (str.to_re "n1")))) (re.++ (re.union (str.to_re "@") (re.union (str.to_re "g<C") (re.union (str.to_re "ca$") (str.to_re "Ns")))) (re.++ (re.union (str.to_re "EOi") (re.union (str.to_re "V+") (re.union (str.to_re "JMi") (str.to_re "Uc_")))) (re.union (str.to_re "[") (re.union (str.to_re "R") (re.union (str.to_re "-k") (str.to_re "7")))))))) (re.++ ((_ re.loop 6 675) (re.++ (re.union (str.to_re "~Q$") (re.union (str.to_re "QY") (re.union (str.to_re "rt") (str.to_re "M:o")))) (re.++ (re.union (str.to_re "P") (re.union (str.to_re ";w<") (re.union (str.to_re "\u0022") (str.to_re ".Y")))) (re.++ (re.union (str.to_re "t-") (re.union (str.to_re "[L") (re.union (str.to_re "T") (str.to_re "_")))) (re.union (str.to_re "Z1\\") (re.union (str.to_re "QJ%") (re.union (str.to_re "f") (str.to_re "xOi")))))))) ((_ re.loop 8 602) (re.++ (re.union (str.to_re "Ivp") (re.union (str.to_re "Nf?") (re.union (str.to_re "_?") (str.to_re "i")))) (re.++ (re.union (str.to_re "ee") (re.union (str.to_re "G") (re.union (str.to_re "I`") (str.to_re "+3")))) (re.++ (re.union (str.to_re "C") (re.union (str.to_re "by") (re.union (str.to_re "`") (str.to_re "'")))) (re.union (str.to_re "-") (re.union (str.to_re "J") (re.union (str.to_re "}5'") (str.to_re "R1")))))))))))))
(assert (not (str.in_re var0 (re.++ ((_ re.loop 0 169) (re.++ (re.union (str.to_re "Q") (re.union (str.to_re "FR") (re.union (str.to_re "'1") (str.to_re "s")))) (re.++ (re.union (str.to_re "(R") (re.union (str.to_re "[V") (re.union (str.to_re "j)") (str.to_re "VsY")))) (re.++ (re.union (str.to_re "'3") (re.union (str.to_re "8-a") (re.union (str.to_re "5P") (str.to_re "e!")))) (re.union (str.to_re "96") (re.union (str.to_re "VN*") (re.union (str.to_re "$") (str.to_re "f,I")))))))) (re.++ ((_ re.loop 4 866) (re.++ (re.union (str.to_re "?") (re.union (str.to_re "8") (re.union (str.to_re "?") (str.to_re "9w")))) (re.++ (re.union (str.to_re "0") (re.union (str.to_re "=") (re.union (str.to_re "P") (str.to_re "!")))) (re.++ (re.union (str.to_re "k&m") (re.union (str.to_re "o9+") (re.union (str.to_re "UB%") (str.to_re "&0V")))) (re.union (str.to_re "=C") (re.union (str.to_re "5") (re.union (str.to_re "Ia") (str.to_re "8")))))))) (re.++ ((_ re.loop 18 528) (re.++ (re.union (str.to_re "%O") (re.union (str.to_re "3") (re.union (str.to_re "D") (str.to_re "I~")))) (re.++ (re.union (str.to_re "4") (re.union (str.to_re "s<") (re.union (str.to_re "K&") (str.to_re "\\!O")))) (re.++ (re.union (str.to_re "1xh") (re.union (str.to_re "i") (re.union (str.to_re "62Y") (str.to_re "Z")))) (re.union (str.to_re "B") (re.union (str.to_re "T") (re.union (str.to_re "8/H") (str.to_re "V!,")))))))) ((_ re.loop 19 798) (re.++ (re.union (str.to_re "h") (re.union (str.to_re "j") (re.union (str.to_re ":") (str.to_re "r$2")))) (re.++ (re.union (str.to_re "f<=") (re.union (str.to_re "}") (re.union (str.to_re "5V0") (str.to_re "p1")))) (re.++ (re.union (str.to_re "s\u0022") (re.union (str.to_re "D") (re.union (str.to_re "WC") (str.to_re "~]")))) (re.union (str.to_re "\\") (re.union (str.to_re "0.") (re.union (str.to_re "jf") (str.to_re "{H^"))))))))))))))
(assert (not (str.in_re var0 (re.++ (re.* re.allchar) (re.++ (re.union (str.to_re "<") (re.union (str.to_re ">") (re.union (str.to_re "'") (re.union (str.to_re "\u0022") (str.to_re "&"))))) (re.* re.allchar))))))
(assert (<= 50 (str.len var0)))
(check-sat)
(get-model)
